70 66 53 42 69 73 50 96 52 78 14 29 55 27 62 60 23 87 77 28 56 97 75 47 32 91 98 51 44 82 2 61 93 63 6 49 15 45 20 35 86 12 83 7 1 8 92 90 36 99 94 22 16 79 19 80 54 40 64 68 100 71 41 3 43 46 25 81 85 30 48 37 33 76 13 95 5 39 34 9 57 58 67 89 31 26 65 4 18 24 38 21 11 17 59 74 72 84 10 88 70